0 461 294
1 168 37
2 244 69
3 60 446
4 454 322
5 73 296
6 2 264
7 137 9
8 394 483
9 590 475
10 31 702
11 52 271
12 35 50
13 41 238
14 386 872
15 66 278
16 335 552
17 15 52
18 653 38
19 174 87
20 259 890
21 165 261
22 61 363
23 375 388
24 340 72
25 153 149
26 477 10
27 507 108
28 5 226
29 236 38
30 74 100
31 676 175
32 703 203
33 2 18
34 135 208
35 190 42
36 8 12
37 6 34
38 176 213
39 123 111
40 107 55
41 12 107
42 19 2
43 2 288
44 426 307
45 114 342
46 253 225
47 25 712
48 314 204
49 284 534
50 53 26